
Gurobi 12.0.2 (win64) logging started Fri Jun  6 10:10:19 2025

Set parameter LogFile to value "C:\Ioana\_uni\honours\slp\algorithm\Main_files\results\others\prox_tubules_new\Task_014_Sample002_irr_gurobi.log"
Gurobi Optimizer version 12.0.2 build v12.0.2rc0 (win64 - Windows 11.0 (26100.2))

CPU model: Intel(R) Core(TM) Ultra 5 125H, instruction set [SSE2|AVX|AVX2]
Thread count: 14 physical cores, 18 logical processors, using up to 18 threads

Non-default parameters:
TimeLimit  2200

Optimize a model with 47658 rows, 34794 columns and 147841 nonzeros
Model fingerprint: 0xdc269389
Variable types: 17400 continuous, 17394 integer (17394 binary)
Coefficient statistics:
  Matrix range     [1e-04, 8e+04]
  Objective range  [1e-04, 9e-01]
  Bounds range     [1e+00, 1e+03]
  RHS range        [1e+00, 1e+00]
Presolve removed 31247 rows and 21834 columns
Presolve time: 0.36s
Presolved: 16411 rows, 12960 columns, 54600 nonzeros
Variable types: 6412 continuous, 6548 integer (6548 binary)

Root relaxation: objective 1.112124e-04, 1649 iterations, 0.08 seconds (0.18 work units)

    Nodes    |    Current Node    |     Objective Bounds      |     Work
 Expl Unexpl |  Obj  Depth IntInf | Incumbent    BestBd   Gap | It/Node Time

     0     0    0.00011    0   12          -    0.00011      -     -    0s
H    0     0                       0.0997337    0.00011   100%     -    0s
H    0     0                       0.0978419    0.00011   100%     -    0s
     0     0    0.05435    0   11    0.09784    0.05435  44.5%     -    0s
     0     0     cutoff    0         0.09784    0.09784  0.00%     -    0s

Explored 1 nodes (1783 simplex iterations) in 0.72 seconds (0.80 work units)
Thread count was 18 (of 18 available processors)

Solution count 2: 0.0978419 0.0997337 

Optimal solution found (tolerance 1.00e-04)
Best objective 9.784194671519e-02, best bound 9.784194671273e-02, gap 0.0000%
